100
100
100
100
100
100
99
99
98
98
98
97
97
97
96
95
95
94
94
94
94
93
93
93
92
92
92
91
91
90
87
86
86
85
85
84
83
83
80
79
78
78
77
76
74
72
72
72
71
71
71
71
70
70
69
68
67
66
65
64
63
63
62
62
62
60
59
59
58
58
57
57
56
55
55
54
53
52
52
51
51
51
49
46
42
41
41
41
40
40
39
39
39
38
36
36
34
34
33
31
30
30
